partD/双决策变量/conjure-output/model000001-data-solution000001.eprime-solution
language ESSENCE' 1.0

letting bag1_Occurrence be [false, true, false, false, false, true, false, false, true, false, false; int(1..11)]
letting bag2_Occurrence be [true, false, false, true, false, false, false, true, false, false, false; int(1..11)]
