partD/双决策变量/conjure-output/model000001-data-solution000001.solution
language Essence 1.3

letting bag1 be {2, 6, 9}
letting bag2 be {1, 4, 8}
